c NeuroCodeBench 2.0 CNF formula with verdict Unsat
p cnf 13 13
-1 -4 -6 -9 -3 0
1 7 11 0
-1 4 0
-1 -4 -6 9 11 -7 2 0
-1 -4 -6 9 11 7 0
-1 -4 -6 -9 3 2 0
-1 -4 -6 9 -11 0
-1 -4 -6 9 11 -7 -2 0
-1 -4 -6 -9 3 -2 0
-1 -4 6 5 0
-1 -4 6 -5 0
1 7 -11 0
1 -7 0
